File: D:\ML4VRP2024\Instances\CVRP\json\X-n143-k7.json exists.
Route #1: 126 136 116 17 78 2 41 86 5 107 1 111 60 79 6 102 72 8 43 114 110 53 
Route #2: 20 117 134 113 3 94 
Route #3: 4 115 124 70 40 59 135 58 48 87 46 67 101 30 121 98 31 34 138 105 129 76 93 
Route #4: 36 16 32 7 19 97 85 35 91 56 83 28 133 47 33 125 123 21 23 132 104 
Route #5: 13 130 9 71 88 73 99 52 66 24 106 27 15 38 92 108 103 63 10 75 26 112 140 131 42 29 
Route #6: 68 84 127 128 118 25 54 12 89 65 45 61 64 44 90 18 74 81 11 100 62 96 
Route #7: 109 120 50 49 51 57 95 139 55 137 142 82 14 37 122 22 119 77 141 69 39 80 
